p td 22 174
2 1
3 1
3 2
4 1
4 2
4 3
5 3
5 1
6 5
6 4
6 1
6 3
6 2
7 1
7 6
7 2
7 3
7 4
8 2
8 4
8 1
8 6
8 3
8 7
9 2
9 7
9 3
9 8
10 2
10 8
10 3
10 7
10 4
10 1
10 5
10 9
11 6
11 9
11 8
11 7
11 2
11 3
11 5
12 1
12 8
12 4
12 6
12 11
12 10
12 3
13 2
13 10
13 5
13 4
13 3
13 8
13 9
13 1
13 12
14 7
14 3
14 4
14 6
14 8
14 1
14 5
14 10
14 12
14 13
14 2
15 5
15 6
15 7
15 1
15 14
15 8
15 11
15 10
15 3
15 4
15 13
16 13
16 2
16 8
16 1
16 5
16 10
16 11
16 9
16 12
16 7
16 4
17 11
17 4
17 6
17 10
17 12
17 8
17 15
17 9
17 3
17 16
18 10
18 4
18 3
18 13
18 1
18 14
18 11
18 8
18 16
18 7
18 5
18 12
18 6
18 17
18 15
19 3
19 9
19 6
19 14
19 1
19 17
19 4
19 8
19 7
19 2
19 15
19 5
19 16
19 13
20 2
20 15
20 17
20 13
20 19
20 6
20 10
20 8
20 9
20 14
20 1
21 10
21 8
21 12
21 17
21 19
21 6
21 5
21 18
21 1
21 14
21 16
21 3
21 9
21 13
21 4
21 7
21 11
22 10
22 12
22 4
22 6
22 19
22 5
22 7
22 9
22 2
22 15
22 3
22 1
22 14
22 8
22 21
